benchmarks_vrp/CMT12/fixed_c/CMT12_6.vrp
NAME: CMT12_6
TYPE: CVRP
COMMENT: 819.56 - Cluster Nr.6
DIMENSION: 11
CAPACITY: 200
EDGE_WEIGHT_TYPE: EUC_2D
NODE_COORD_TYPE: TWOD_COORDS
NODE_COORD_SECTION: 
6 63 58
8 70 58
7 40 50
10 65 55
11 68 60
4 60 55
1 60 60
3 75 55
9 66 55
2 65 60
5 72 55
DEPOT_SECTION: 
7
-1
DEMAND_SECTION: 
6 10
7 0
3 20
5 10
4 10
9 10
8 20
10 20
2 30
1 10
11 30
EOF
