benchmarks_vrp/CMT12/fixed_c/CMT12_6.tour
NAME: CMT12_6 solution
TYPE: TOUR
TOUR_SECTION:
7 1 6 2 11 8 3 5 9 10 4 -1
-1
EOF